interval = 15;
days = 7;
demand = [15,15,15,15,15,15,15,15,15,15,15,15,15,15,15,15,15,15,15,15,15,15,10,17,17,17,13,16,16,14,14,14,14,14,14,14,19,19,19,23,28,28,30,32,32,32,32,32,32,32,32,29,29,33,33,35,31,30,30,28,28,28,28,28,28,28,28,23,23,23,19,19,19,19,14,12,12,12,10,10,10,7,7,7,11,11,11,16,17,17,15,15,18,18,18,18,18,18,18,18,18,18,18,18,18,18,18,18,18,18,18,18,18,18,18,18,18,18,12,19,19,19,13,16,16,15,15,15,15,15,15,15,15,15,15,17,19,19,21,24,24,24,24,24,24,24,24,21,21,25,25,27,23,22,22,20,20,20,20,20,19,19,19,19,19,19,17,17,17,17,15,13,13,13,10,10,10,7,7,7,11,11,11,16,17,17,15,15,18,18,18,18,18,18,18,18,18,18,18,18,18,18,18,18,18,18,18,18,18,18,18,18,18,18,12,20,20,20,14,17,17,16,16,16,16,16,16,16,21,21,21,22,24,24,26,29,29,29,29,29,29,29,29,25,25,29,29,31,27,26,26,24,24,24,24,24,23,23,23,18,18,18,17,17,17,17,15,13,13,13,10,10,10,7,7,7,11,11,11,16,17,17,15,15,18,18,18,18,18,18,18,18,18,18,18,18,18,18,18,18,18,18,18,18,18,18,18,18,18,18,12,19,19,19,13,16,16,14,14,14,14,14,14,14,14,14,14,18,20,20,22,25,25,25,25,25,25,25,25,22,22,26,26,28,24,23,23,21,21,21,21,21,21,21,21,21,21,21,17,17,17,17,15,13,13,13,10,10,10,7,7,7,11,11,11,13,14,14,12,12,15,15,15,15,15,15,15,15,15,15,15,15,15,15,15,15,15,15,15,15,15,15,15,15,15,15,9,16,16,16,13,16,16,14,14,14,14,14,14,14,19,19,19,23,25,25,27,30,30,30,30,30,30,30,30,27,27,31,31,33,29,28,28,26,26,26,26,26,26,26,26,21,21,21,17,17,17,17,15,13,13,13,10,10,10,7,7,7,11,11,11,16,16,16,14,14,17,17,17,17,17,17,17,17,17,17,17,17,17,17,17,17,17,17,17,17,17,17,17,17,17,17,12,19,19,19,13,17,17,15,15,15,15,15,15,15,17,17,17,21,24,24,27,30,30,30,30,30,30,30,30,27,27,31,31,33,29,27,27,28,28,28,28,28,28,28,28,26,26,26,22,22,22,22,19,16,16,16,13,13,13,10,10,10,13,13,13,16,14,14,12,12,16,16,16,16,16,16,16,16,16,16,16,16,16,16,16,16,16,16,16,16,16,16,16,16,16,16,11,18,18,18,14,18,18,15,15,15,15,15,15,15,17,17,17,19,22,22,25,28,28,28,28,28,28,28,28,25,25,29,29,31,27,27,27,28,28,28,28,28,28,28,28,26,26,26,24,24,24,24,21,18,18,18,15,15,15,12,12,12,15,15,15,18,14,14,12,12,15,15,15,15];
shiftTypes = 4;
minStart = [20, 36, 52, 84];
maxStart = [32, 44, 60, 92];
minLength = [28, 28, 28, 28];
maxLength = [36, 36, 36, 36];
minDuties = 4.8;
maxDuties = 5;
avgMinutes = 2280;
weightUnderCover = 1;
weightOverCover = 1;
weightDutiesPerWeek = 0;
weightShiftInstances = 15;
